sat
(:SPACER-cex-depth                 2
 :SPACER-inductive-gen             1
 :SPACER-inductive-gen-weaken-fail 1
 :SPACER-max-depth                 2
 :SPACER-max-query-lvl             2
 :SPACER-num-active-lemmas         2
 :SPACER-num-is_invariant          2
 :SPACER-num-lemmas                3
 :SPACER-num-pobs                  2
 :SPACER-num-queries               2
 :SPACER-num-reach-queries         2
 :SPACER-num-reuse-reach-facts     1
 :added-eqs                        74
 :arith-assert-diseq               28
 :arith-assert-lower               88
 :arith-assert-upper               86
 :arith-bound-prop                 16
 :arith-conflicts                  6
 :arith-eq-adapter                 36
 :arith-fixed-eqs                  12
 :arith-num-rows                   16
 :arith-offset-eqs                 4
 :arith-pivots                     18
 :arith-row-summations             18
 :arith-tableau-max-columns        44
 :arith-tableau-max-rows           16
 :conflicts                        20
 :decisions                        58
 :del-clause                       40
 :final-checks                     12
 :iuc_solver.num_proxies           2
 :max-memory                       30.13
 :memory                           30.13
 :mk-bool-var                      238
 :mk-clause                        240
 :num-allocs                       4217705
 :num-checks                       24
 :pool_solver.checks               12
 :pool_solver.checks.sat           6
 :propagations                     248
 :rlimit-count                     3528
 :time                             0.02
 :time.pool_solver.smt.total       0.00
 :time.pool_solver.smt.total.sat   0.00
 :time.spacer.init_rules           0.00
 :time.spacer.solve                0.01
 :time.spacer.solve.reach          0.01)
(:max-memory   30.13
 :memory       30.13
 :num-allocs   4217705
 :rlimit-count 3528
 :time         0.02
 :total-time   0.04)
